0.4 6.2 7628.31  
0.4 6.4 7628.31
0.4 6.6 7628.31
0.4 6.8 7628.31
0.4 7.0 7628.31
0.4 7.2 7628.31
0.4 7.4 7628.31
0.4 7.6 7549.29
0.4 7.8 7549.29
0.6 4.8 7628.31
0.6 5.2 7628.31
0.6 6.4 7555.4
0.6 6.6 7555.4
0.6 6.8 7555.4
0.6 7.0 7555.4
0.6 7.2 7576.25
0.6 7.4 7555.4
0.6 7.6 7576.25
0.6 7.8 7555.4
0.8 2.8 7659.52
0.8 4.2 7664.48
0.8 4.4 7555.4
0.8 4.6 7664.48
0.8 4.8 7555.4
0.8 5.0 7555.4
0.8 5.2 7555.4
0.8 5.4 7555.4
0.8 5.6 7663.59
0.8 5.8 7663.59
0.8 6.0 7555.4
0.8 6.2 7663.59
0.8 6.4 7663.59
0.8 6.6 7576.25
0.8 6.8 7576.25
0.8 7.0 7663.59
0.8 7.2 7663.59
1.0 2.6 7544.66
1.0 2.8 7571.92
1.0 3.0 7544.37
1.0 3.2 7663.59
1.0 3.4 7571.62
1.0 3.6 7663.59
1.0 3.8 7571.62
1.0 4.0 7658.96
1.0 4.2 7544.37
1.0 4.4 7663.59
1.0 4.6 7663.59
1.0 4.8 7544.37
1.0 5.0 7663.59
1.0 5.4 7598.74
1.0 5.6 7598.74
1.0 5.8 7598.74
1.2 0.4 7655.61
1.2 1.2 7655.61
1.2 2.0 7663.88
1.2 2.4 7659.25
1.2 2.6 7659.25
1.2 2.8 7663.59
1.2 3.0 7663.59
1.4 1.2 7663.88
1.4 1.6 7663.88
1.4 1.8 7663.88
1.4 2.2 7663.59
1.4 3.0 7663.88